96359.6
0 1 2 3 4 222 221 220 219 218 216 217 223 224 225 5 6 7 8 9 10 11 18 16 17 15 13 14 12 19 20 21 22 80 81 82 83 84 85 86 87 88 89 90 91 92 93 94 95 96 97 98 99 100 101 102 103 104 105 106 107 108 109 110 111 112 79 77 78 76 75 74 73 72 71 70 69 68 67 66 65 64 63 62 61 60 59 58 57 56 55 54 53 52 51 50 49 48 47 46 45 44 43 42 41 40 39 38 37 33 26 25 24 23 30 32 31 35 27 28 29 36 34 206 205 204 203 202 200 201 199 207 208 209 210 211 212 214 213 155 159 158 157 160 145 144 143 148 149 150 151 152 153 154 156 147 146 142 141 139 138 137 136 135 134 140 161 162 163 164 165 166 167 168 169 170 171 172 173 174 175 176 177 131 130 129 128 124 123 125 183 180 181 182 179 126 122 118 117 116 115 120 184 185 186 187 188 189 190 191 192 193 194 195 197 198 196 113 114 119 121 127 132 133 178 215 
